set VV := 0 1 2 3 4 5 6 7 8 9 10 11 12 13 14 15 16 17 18 19 20 21 22 23 24 25 26 27 28 29 30 31 32 33 34 35 36 37 38 39 40 ;
set VS := 0 1 2 3 4 5 6 7 8 9 10 11 12 13 14 15 16 17 18 19 20 21 22 23 24 25 26 27 28 29 30 31 32 33 34 35 36 37 38 39 40 41 42 43 44 45 46 47 48 49 50 51 52 53 54 55 56 57 58 59 60 61 62 63 64 65 66 67 68 69 70 71 72 73 74 75 76 77 78 79 80 81 82 83 84 85 ;
param cv := 
0 13
1 23
2 16
3 20
4 11
5 19
6 21
7 12
8 14
9 10
10 20
11 18
12 10
13 22
14 15
15 24
16 24
17 10
18 20
19 12
20 17
21 12
22 25
23 17
24 18
25 20
26 19
27 22
28 11
29 24
30 21
31 20
32 14
33 18
34 22
35 11
36 13
37 25
38 18
39 13
40 12
;
param cs := 
0 40
1 37
2 31
3 29
4 32
5 33
6 38
7 30
8 32
9 32
10 23
11 36
12 28
13 32
14 27
15 28
16 37
17 36
18 29
19 39
20 36
21 35
22 33
23 40
24 21
25 26
26 26
27 29
28 22
29 39
30 25
31 35
32 40
33 39
34 33
35 28
36 40
37 28
38 23
39 39
40 32
41 38
42 24
43 22
44 22
45 32
46 31
47 35
48 24
49 29
50 21
51 38
52 34
53 20
54 25
55 30
56 29
57 25
58 37
59 20
60 27
61 22
62 36
63 35
64 32
65 22
66 32
67 24
68 37
69 34
70 24
71 36
72 27
73 31
74 26
75 35
76 27
77 35
78 22
79 40
80 36
81 25
82 23
83 39
84 33
85 26
;
param bv:	 0 1 2 3 4 5 6 7 8 9 10 11 12 13 14 15 16 17 18 19 20 21 22 23 24 25 26 27 28 29 30 31 32 33 34 35 36 37 38 39 40 := 
		0 0 0 0 0 0 0 0 0 0 0 0 0 0 14 0 0 0 0 0 0 0 0 0 0 21 0 0 0 11 0 0 13 0 21 0 0 0 0 23 0 0 
		1 0 0 15 0 13 0 20 0 0 0 0 0 0 10 0 0 0 0 0 14 0 0 0 0 0 0 0 14 18 0 0 0 0 23 0 0 0 0 0 12 0 
		2 0 0 0 0 0 0 0 0 0 0 0 16 0 0 0 0 0 0 0 0 13 0 0 0 0 0 0 0 0 21 0 0 0 0 0 10 0 0 0 0 0 
		3 0 0 0 0 0 15 0 0 0 0 21 0 20 0 25 18 0 0 21 0 0 0 0 0 0 0 18 0 0 19 0 0 0 0 0 25 0 0 0 0 0 
		4 0 0 0 0 0 0 12 0 0 17 0 0 0 0 0 0 0 0 0 0 0 0 0 17 12 0 0 0 0 0 0 0 0 0 0 0 0 0 0 0 10 
		5 0 0 0 0 0 0 18 0 0 0 22 0 0 0 0 0 0 0 21 0 0 0 0 0 0 0 0 0 0 0 0 0 0 0 0 0 0 0 0 0 0 
		6 0 0 0 0 0 0 0 0 0 0 0 0 0 0 0 0 0 0 0 0 0 0 0 20 0 0 22 0 0 0 0 24 0 0 0 0 0 0 0 0 0 
		7 0 0 0 0 0 0 0 0 0 0 0 0 0 0 0 0 0 0 0 0 0 0 0 0 0 0 0 0 15 0 0 0 0 0 0 0 0 0 0 21 0 
		8 0 0 0 0 0 0 0 0 0 0 0 0 0 11 0 0 0 0 0 0 0 0 0 0 0 0 0 12 0 0 0 0 0 0 0 0 0 25 0 18 0 
		9 0 0 0 0 0 0 0 0 0 0 11 0 0 0 15 0 0 22 0 11 0 0 0 0 0 0 0 0 19 0 0 0 0 0 0 0 0 0 0 0 0 
		10 0 0 0 0 0 0 0 0 0 0 0 0 0 0 0 0 0 15 0 0 0 0 0 11 0 0 0 10 0 14 0 21 17 0 0 23 0 0 0 11 13 
		11 0 0 0 0 0 0 0 0 0 0 0 0 0 0 0 0 0 0 0 0 0 0 0 0 0 0 23 0 0 0 0 0 0 0 15 0 0 0 0 0 0 
		12 0 0 0 0 0 0 0 0 0 0 0 0 0 0 0 0 0 0 23 0 0 0 0 12 0 0 10 0 0 22 0 11 0 0 14 0 11 0 0 0 0 
		13 0 0 0 0 0 0 0 0 0 0 0 0 0 0 0 0 14 0 0 0 0 14 0 0 0 0 25 0 0 21 13 0 15 0 0 0 0 0 0 12 0 
		14 0 0 0 0 0 0 0 0 0 0 0 0 0 0 0 0 0 0 0 0 0 0 0 0 0 0 12 0 0 17 0 0 0 0 0 17 0 12 0 0 25 
		15 0 0 0 0 0 0 0 0 0 0 0 0 0 0 0 0 0 0 0 20 0 24 0 0 0 0 0 0 0 0 0 0 0 0 16 22 22 0 0 0 16 
		16 0 0 0 0 0 0 0 0 0 0 0 0 0 0 0 0 0 0 0 0 0 0 0 0 0 0 12 0 0 0 0 0 0 0 0 13 0 0 0 0 0 
		17 0 0 0 0 0 0 0 0 0 0 0 0 0 0 0 0 0 0 0 0 0 0 0 0 18 0 0 0 0 0 0 0 0 0 0 0 0 22 0 0 0 
		18 0 0 0 0 0 0 0 0 0 0 0 0 0 0 0 0 0 0 0 0 0 10 0 0 0 24 0 0 0 0 23 0 0 0 0 0 0 0 0 0 0 
		19 0 0 0 0 0 0 0 0 0 0 0 0 0 0 0 0 0 0 0 0 0 0 0 0 0 0 0 0 0 0 12 10 18 0 0 0 0 0 0 0 0 
		20 0 0 0 0 0 0 0 0 0 0 0 0 0 0 0 0 0 0 0 0 0 0 0 0 0 20 0 0 0 0 24 0 0 0 0 0 0 0 0 0 0 
		21 0 0 0 0 0 0 0 0 0 0 0 0 0 0 0 0 0 0 0 0 0 0 0 0 0 0 0 0 0 0 0 0 0 0 0 0 0 0 0 0 12 
		22 0 0 0 0 0 0 0 0 0 0 0 0 0 0 0 0 0 0 0 0 0 0 0 0 0 17 0 0 0 0 0 22 0 0 10 0 0 0 0 0 0 
		23 0 0 0 0 0 0 0 0 0 0 0 0 0 0 0 0 0 0 0 0 0 0 0 0 0 0 0 0 0 0 0 0 0 0 0 0 0 13 0 0 0 
		24 0 0 0 0 0 0 0 0 0 0 0 0 0 0 0 0 0 0 0 0 0 0 0 0 0 0 0 0 14 0 0 12 0 10 0 0 0 0 11 18 0 
		25 0 0 0 0 0 0 0 0 0 0 0 0 0 0 0 0 0 0 0 0 0 0 0 0 0 0 0 0 0 0 0 0 0 0 0 0 0 0 0 0 0 
		26 0 0 0 0 0 0 0 0 0 0 0 0 0 0 0 0 0 0 0 0 0 0 0 0 0 0 0 0 0 0 0 0 0 0 0 0 0 25 23 0 0 
		27 0 0 0 0 0 0 0 0 0 0 0 0 0 0 0 0 0 0 0 0 0 0 0 0 0 0 0 0 21 0 0 0 0 0 0 0 0 0 0 0 0 
		28 0 0 0 0 0 0 0 0 0 0 0 0 0 0 0 0 0 0 0 0 0 0 0 0 0 0 0 0 0 0 0 0 14 0 0 0 11 0 10 0 0 
		29 0 0 0 0 0 0 0 0 0 0 0 0 0 0 0 0 0 0 0 0 0 0 0 0 0 0 0 0 0 0 0 0 0 0 0 0 16 0 0 0 0 
		30 0 0 0 0 0 0 0 0 0 0 0 0 0 0 0 0 0 0 0 0 0 0 0 0 0 0 0 0 0 0 0 0 0 0 0 13 0 0 0 0 0 
		31 0 0 0 0 0 0 0 0 0 0 0 0 0 0 0 0 0 0 0 0 0 0 0 0 0 0 0 0 0 0 0 0 0 0 0 0 0 0 0 0 0 
		32 0 0 0 0 0 0 0 0 0 0 0 0 0 0 0 0 0 0 0 0 0 0 0 0 0 0 0 0 0 0 0 0 0 0 0 0 0 0 0 0 0 
		33 0 0 0 0 0 0 0 0 0 0 0 0 0 0 0 0 0 0 0 0 0 0 0 0 0 0 0 0 0 0 0 0 0 0 0 0 0 0 0 17 21 
		34 0 0 0 0 0 0 0 0 0 0 0 0 0 0 0 0 0 0 0 0 0 0 0 0 0 0 0 0 0 0 0 0 0 0 0 0 0 21 0 0 0 
		35 0 0 0 0 0 0 0 0 0 0 0 0 0 0 0 0 0 0 0 0 0 0 0 0 0 0 0 0 0 0 0 0 0 0 0 0 0 22 0 0 0 
		36 0 0 0 0 0 0 0 0 0 0 0 0 0 0 0 0 0 0 0 0 0 0 0 0 0 0 0 0 0 0 0 0 0 0 0 0 0 0 0 23 0 
		37 0 0 0 0 0 0 0 0 0 0 0 0 0 0 0 0 0 0 0 0 0 0 0 0 0 0 0 0 0 0 0 0 0 0 0 0 0 0 0 0 0 
		38 0 0 0 0 0 0 0 0 0 0 0 0 0 0 0 0 0 0 0 0 0 0 0 0 0 0 0 0 0 0 0 0 0 0 0 0 0 0 0 0 0 
		39 0 0 0 0 0 0 0 0 0 0 0 0 0 0 0 0 0 0 0 0 0 0 0 0 0 0 0 0 0 0 0 0 0 0 0 0 0 0 0 0 13 
		40 0 0 0 0 0 0 0 0 0 0 0 0 0 0 0 0 0 0 0 0 0 0 0 0 0 0 0 0 0 0 0 0 0 0 0 0 0 0 0 0 0 
;
param bs:	 0 1 2 3 4 5 6 7 8 9 10 11 12 13 14 15 16 17 18 19 20 21 22 23 24 25 26 27 28 29 30 31 32 33 34 35 36 37 38 39 40 41 42 43 44 45 46 47 48 49 50 51 52 53 54 55 56 57 58 59 60 61 62 63 64 65 66 67 68 69 70 71 72 73 74 75 76 77 78 79 80 81 82 83 84 85 := 
		0 0 0 30 0 0 0 0 0 32 0 0 0 0 0 0 0 0 0 0 0 0 29 0 0 0 0 0 0 0 0 0 0 0 0 0 0 0 0 0 0 0 0 0 0 0 0 0 0 0 0 0 40 34 0 0 0 0 0 0 0 28 0 0 0 0 0 26 0 0 0 0 0 0 0 0 0 0 0 0 0 0 0 0 0 0 0 
		1 0 0 0 0 0 0 0 0 0 37 0 0 28 0 0 0 0 0 0 0 0 0 0 0 29 0 0 0 0 0 0 0 0 0 0 0 0 0 0 0 0 0 0 0 0 0 0 0 0 0 0 0 0 0 0 0 0 0 0 0 0 0 0 0 0 0 0 0 0 0 20 0 27 29 0 29 0 0 0 35 0 0 0 0 0 0 
		2 30 0 0 0 0 0 0 0 0 26 0 28 0 0 0 0 0 0 0 26 0 37 33 0 0 39 0 0 0 0 0 0 0 28 0 0 0 36 0 0 0 0 34 0 0 0 0 0 0 0 0 0 0 0 0 0 0 0 0 0 0 0 0 0 0 0 0 31 0 0 0 0 0 0 0 27 0 0 30 0 0 38 0 40 0 0 
		3 0 0 0 0 0 32 0 0 0 0 0 37 34 27 0 0 0 0 0 0 0 0 0 0 0 0 26 30 0 0 0 0 0 0 0 0 0 0 0 0 24 0 0 0 0 0 0 0 0 0 0 0 0 0 0 0 0 0 0 0 0 0 0 0 36 0 0 0 0 0 0 0 0 0 0 0 0 0 25 20 0 40 0 0 0 0 
		4 0 0 0 0 0 0 0 0 34 0 0 26 0 0 0 0 0 0 31 0 0 27 0 0 0 0 0 0 0 0 0 0 0 0 0 0 34 0 0 0 0 0 0 0 0 0 0 0 0 0 0 0 37 33 0 0 0 0 0 0 0 0 0 0 21 0 0 0 0 0 0 0 0 0 39 0 0 0 0 0 0 0 0 27 0 0 
		5 0 0 0 32 0 0 0 0 0 32 0 0 25 0 0 0 32 0 0 0 0 0 0 0 34 0 0 0 0 0 0 0 0 30 0 0 0 0 25 0 0 0 30 0 30 0 0 0 0 0 0 0 0 0 0 0 0 0 27 0 0 33 0 0 0 0 0 0 0 0 0 0 0 0 26 0 0 0 31 0 25 0 0 0 0 0 
		6 0 0 0 0 0 0 0 0 0 0 0 0 0 0 0 0 0 0 0 0 0 30 0 0 0 0 0 0 0 0 0 0 0 0 0 22 0 0 0 0 0 0 0 34 0 0 24 0 0 0 0 0 0 30 0 0 0 20 0 0 0 0 0 0 29 0 0 0 0 40 0 0 0 0 0 0 40 25 0 0 0 0 0 38 0 0 
		7 0 0 0 0 0 0 0 0 0 0 40 33 23 0 0 0 0 0 0 0 0 0 0 0 0 0 0 0 0 0 0 0 0 0 0 0 0 0 25 0 0 0 0 0 0 0 0 0 0 0 0 0 0 0 0 0 0 0 0 25 0 0 0 0 0 28 0 0 0 0 0 0 0 40 0 31 0 0 0 0 0 0 0 0 0 0 
		8 32 0 0 0 34 0 0 0 0 0 0 0 0 0 0 0 0 0 0 0 35 35 0 0 0 0 0 0 0 0 0 0 0 0 29 0 0 0 0 0 0 0 21 0 0 0 0 0 0 0 0 36 39 0 0 0 26 0 0 0 0 27 0 0 0 0 40 0 0 0 0 24 0 0 0 0 0 0 0 0 0 0 0 31 0 0 
		9 0 37 26 0 0 32 0 0 0 0 0 0 26 0 0 0 0 0 0 0 0 0 0 0 0 0 0 0 0 0 34 0 0 0 0 0 0 0 0 38 0 0 0 0 0 0 0 24 37 0 0 0 0 0 0 0 0 0 0 0 0 0 0 30 0 0 0 0 0 0 0 0 0 0 0 20 0 0 36 0 0 20 0 35 0 0 
		10 0 0 0 0 0 0 0 40 0 0 0 0 0 40 0 35 0 0 0 0 0 0 0 21 35 0 0 0 0 0 0 23 0 0 0 0 0 0 37 0 0 0 0 0 0 0 0 0 23 0 26 0 0 0 0 0 0 33 0 0 0 0 0 0 0 32 0 0 0 0 0 0 0 0 0 0 0 0 0 0 0 0 0 0 33 0 
		11 0 0 28 37 26 0 0 33 0 0 0 0 38 0 0 0 0 0 0 0 0 25 0 0 0 0 0 0 0 0 0 0 32 0 0 0 0 0 0 0 0 0 0 0 0 0 0 0 0 0 0 0 22 0 0 0 0 38 0 0 0 0 0 27 0 0 0 0 0 0 0 38 0 0 0 0 0 0 0 0 30 37 0 31 0 0 
		12 0 28 0 34 0 25 0 23 0 26 0 38 0 0 0 0 0 0 0 0 0 26 26 0 0 0 0 0 0 0 0 0 0 0 0 0 38 0 0 0 0 0 0 0 0 0 0 38 0 0 0 39 0 0 0 0 0 33 35 0 0 0 0 0 22 0 0 0 0 0 0 0 0 0 0 0 0 0 0 0 0 0 0 0 0 0 
		13 0 0 0 27 0 0 0 0 0 0 40 0 0 0 0 0 0 0 0 0 0 0 0 0 0 0 0 0 0 0 0 0 0 0 35 0 30 24 0 37 0 0 0 0 0 0 0 0 0 0 0 0 0 0 0 0 0 0 37 26 36 0 0 0 0 0 0 0 0 0 0 0 0 0 0 33 0 40 36 0 0 0 0 0 0 0 
		14 0 0 0 0 0 0 0 0 0 0 0 0 0 0 0 0 0 0 0 0 0 0 0 0 0 0 0 21 0 0 0 0 0 0 0 0 0 0 0 0 0 0 0 0 0 0 0 0 0 0 0 0 0 31 0 0 0 0 0 0 0 0 0 0 0 0 0 0 0 0 0 0 0 0 0 0 0 0 0 31 0 0 0 0 0 38 
		15 0 0 0 0 0 0 0 0 0 0 35 0 0 0 0 0 0 0 0 0 0 0 0 0 0 0 35 0 0 40 24 0 0 0 35 0 0 0 34 0 39 0 0 0 40 0 0 0 0 0 0 0 0 0 0 0 0 0 0 0 0 0 0 0 34 0 26 0 0 0 0 0 0 0 0 0 0 0 0 0 0 0 0 0 0 26 
		16 0 0 0 0 0 32 0 0 0 0 0 0 0 0 0 0 0 0 0 0 0 0 0 0 0 0 0 0 0 0 0 0 0 0 0 0 0 0 0 38 34 0 0 0 0 0 0 37 0 0 0 0 27 0 0 0 0 0 0 0 0 0 26 0 0 0 0 0 30 0 0 0 30 0 0 0 0 0 0 0 0 0 0 0 0 0 
		17 0 0 0 0 0 0 0 0 0 0 0 0 0 0 0 0 0 0 0 0 0 0 22 40 0 0 0 0 0 0 0 0 33 0 0 0 0 0 0 0 0 0 0 0 0 0 0 0 20 0 0 0 0 0 0 0 0 29 0 0 0 0 0 0 36 0 0 0 0 0 0 0 0 0 0 30 0 0 0 0 36 0 0 0 0 0 
		18 0 0 0 0 31 0 0 0 0 0 0 0 0 0 0 0 0 0 0 0 0 0 0 0 0 0 0 0 0 0 0 0 0 0 0 0 0 0 0 0 0 0 38 0 0 0 0 0 0 0 0 0 0 0 0 0 0 0 0 0 0 37 0 0 0 0 0 0 0 0 0 0 0 0 0 22 0 0 0 0 0 0 0 39 0 0 
		19 0 0 26 0 0 0 0 0 0 0 0 0 0 0 0 0 0 0 0 0 0 0 0 0 0 36 0 0 0 0 0 0 0 0 0 28 0 0 0 0 0 31 0 0 0 0 0 0 0 20 0 0 23 0 0 0 0 0 0 0 0 0 33 0 33 0 0 0 0 0 0 0 0 0 0 0 0 0 0 0 0 0 0 0 0 0 
		20 0 0 0 0 0 0 0 0 35 0 0 0 0 0 0 0 0 0 0 0 0 0 0 33 0 0 0 0 0 0 0 0 0 0 0 0 0 30 0 0 33 0 0 0 0 0 0 0 0 27 0 0 0 0 0 0 35 0 0 0 0 0 0 0 0 0 0 33 0 0 0 0 0 0 0 0 0 0 0 0 0 0 0 0 0 0 
		21 29 0 37 0 27 0 30 0 35 0 0 25 26 0 0 0 0 0 0 0 0 0 0 0 25 0 0 0 0 0 0 0 0 0 0 0 0 0 0 0 0 0 0 0 0 0 0 0 0 0 0 0 0 40 0 0 0 0 34 0 0 36 0 39 0 0 0 0 0 0 0 20 0 0 0 0 0 0 0 0 0 0 0 27 0 0 
		22 0 0 33 0 0 0 0 0 0 0 0 0 26 0 0 0 0 22 0 0 0 0 0 0 0 0 22 0 0 0 0 0 0 0 0 0 0 0 0 0 0 0 33 0 0 0 0 0 0 0 0 0 0 0 0 0 0 0 0 0 0 0 0 0 0 28 0 0 0 32 0 0 0 0 0 36 0 0 30 0 34 0 20 0 0 21 
		23 0 0 0 0 0 0 0 0 0 0 21 0 0 0 0 0 0 40 0 0 33 0 0 0 0 31 0 0 0 0 0 0 24 0 0 0 0 39 0 0 37 0 0 0 0 0 0 0 0 0 0 0 0 0 0 0 0 0 26 0 0 0 0 0 0 0 0 0 36 38 0 0 0 0 0 0 0 0 0 0 0 0 0 0 0 0 
		24 0 29 0 0 0 34 0 0 0 0 35 0 0 0 0 0 0 0 0 0 0 25 0 0 0 0 0 0 0 0 0 0 0 0 0 0 32 0 0 0 0 0 37 0 0 0 0 0 0 0 0 0 0 22 0 0 0 0 0 0 0 0 0 0 0 0 0 0 0 0 0 0 0 0 24 0 0 0 0 0 0 0 0 24 0 0 
		25 0 0 39 0 0 0 0 0 0 0 0 0 0 0 0 0 0 0 0 36 0 0 0 31 0 0 0 0 0 0 0 0 0 0 0 0 0 36 0 0 21 0 25 38 0 32 0 0 0 0 21 0 0 0 31 0 0 0 0 0 0 37 0 0 0 0 0 0 0 0 0 0 0 0 0 0 0 0 0 0 37 0 0 0 0 0 
		26 0 0 0 26 0 0 0 0 0 0 0 0 0 0 0 35 0 0 0 0 0 0 22 0 0 0 0 0 24 0 0 0 0 0 0 0 0 0 0 0 0 0 0 0 0 0 0 0 0 0 0 0 0 0 0 0 35 0 0 0 0 0 0 0 0 0 0 0 0 0 0 0 0 0 40 0 0 0 29 0 0 0 0 0 0 34 
		27 0 0 0 30 0 0 0 0 0 0 0 0 0 0 21 0 0 0 0 0 0 0 0 0 0 0 0 0 0 0 0 0 0 0 0 0 0 0 0 40 0 38 0 0 39 0 0 0 0 0 0 0 0 0 0 0 37 0 0 0 0 0 0 0 0 0 0 0 0 0 0 0 0 0 0 38 0 0 0 0 0 0 0 0 0 24 
		28 0 0 0 0 0 0 0 0 0 0 0 0 0 0 0 0 0 0 0 0 0 0 0 0 0 0 24 0 0 27 0 0 0 0 0 0 0 0 0 0 0 0 0 0 0 0 0 0 0 0 0 0 0 0 0 0 0 0 0 0 0 0 0 0 0 0 0 0 0 0 0 0 0 34 0 0 0 0 0 0 0 37 0 0 0 0 
		29 0 0 0 0 0 0 0 0 0 0 0 0 0 0 0 40 0 0 0 0 0 0 0 0 0 0 0 0 27 0 22 0 0 0 0 0 0 0 0 0 0 0 0 0 0 0 0 0 0 0 0 0 0 0 34 0 0 0 0 0 0 0 0 0 0 0 0 23 0 0 0 0 22 0 0 0 0 0 0 0 0 0 0 0 0 40 
		30 0 0 0 0 0 0 0 0 0 34 0 0 0 0 0 24 0 0 0 0 0 0 0 0 0 0 0 0 0 22 0 0 37 0 0 0 0 0 0 0 29 0 0 0 0 0 0 0 36 0 0 0 0 0 0 0 0 0 0 0 0 0 0 0 0 26 0 0 33 0 26 0 0 0 0 0 0 0 0 0 0 0 31 0 0 38 
		31 0 0 0 0 0 0 0 0 0 0 23 0 0 0 0 0 0 0 0 0 0 0 0 0 0 0 0 0 0 0 0 0 0 31 0 0 36 0 0 0 0 0 0 0 25 0 0 0 32 31 0 0 0 29 24 25 0 31 0 0 0 0 0 0 0 0 0 0 0 0 0 0 35 0 0 0 0 0 0 0 0 0 37 0 0 0 
		32 0 0 0 0 0 0 0 0 0 0 0 32 0 0 0 0 0 33 0 0 0 0 0 24 0 0 0 0 0 0 37 0 0 0 0 0 24 0 32 0 0 0 0 0 0 0 0 0 23 0 0 0 0 0 0 0 0 0 0 0 0 0 0 0 0 0 0 0 0 0 0 0 0 0 0 0 0 0 0 0 0 0 0 0 0 0 
		33 0 0 28 0 0 30 0 0 0 0 0 0 0 0 0 0 0 0 0 0 0 0 0 0 0 0 0 0 0 0 0 31 0 0 0 0 0 0 40 24 0 0 0 0 0 0 0 0 0 0 0 0 0 0 0 0 0 0 0 0 0 0 0 0 0 0 0 0 0 0 0 0 0 0 0 0 0 0 0 0 27 0 0 0 0 0 
		34 0 0 0 0 0 0 0 0 29 0 0 0 0 35 0 35 0 0 0 0 0 0 0 0 0 0 0 0 0 0 0 0 0 0 0 0 0 0 0 0 0 0 0 20 0 0 0 0 0 0 0 0 22 0 0 0 0 0 26 0 0 0 0 0 0 0 0 0 0 0 0 0 0 0 0 0 0 0 0 0 0 0 0 0 0 0 
		35 0 0 0 0 0 0 22 0 0 0 0 0 0 0 0 0 0 0 0 28 0 0 0 0 0 0 0 0 0 0 0 0 0 0 0 0 0 0 0 0 0 0 0 0 0 0 0 0 0 37 0 0 0 24 0 0 0 0 28 0 0 25 20 0 0 0 0 0 0 0 0 0 0 0 0 0 36 0 0 0 0 25 0 0 0 0 
		36 0 0 0 0 34 0 0 0 0 0 0 0 38 30 0 0 0 0 0 0 0 0 0 0 32 0 0 0 0 0 0 36 24 0 0 0 0 0 0 0 0 0 0 0 0 0 0 0 0 0 0 0 0 0 0 0 0 0 0 0 21 0 0 0 0 0 0 0 0 0 0 0 0 0 0 20 0 0 29 0 0 0 0 33 0 0 
		37 0 0 36 0 0 0 0 0 0 0 0 0 0 24 0 0 0 0 0 0 30 0 0 39 0 36 0 0 0 0 0 0 0 0 0 0 0 0 0 0 0 0 0 27 0 34 0 0 0 0 0 0 0 38 36 0 0 0 0 0 0 0 0 0 0 0 31 0 0 0 0 0 0 0 0 0 0 0 0 0 0 0 0 33 0 0 
		38 0 0 0 0 0 25 0 25 0 0 37 0 0 0 0 34 0 0 0 0 0 0 0 0 0 0 0 0 0 0 0 0 32 40 0 0 0 0 0 0 0 0 0 0 0 0 0 0 0 0 0 0 0 0 0 0 0 0 0 0 0 0 0 0 0 31 0 0 0 0 0 0 0 0 0 0 0 0 0 0 36 0 37 0 0 0 
		39 0 0 0 0 0 0 0 0 0 38 0 0 0 37 0 0 38 0 0 0 0 0 0 0 0 0 0 40 0 0 0 0 0 24 0 0 0 0 0 0 0 0 0 0 25 0 0 0 0 0 0 0 0 0 0 0 0 0 0 0 0 0 0 28 29 0 32 0 33 0 36 0 0 0 0 0 0 0 0 0 0 39 35 0 0 0 
		40 0 0 0 24 0 0 0 0 0 0 0 0 0 0 0 39 34 0 0 0 33 0 0 37 0 21 0 0 0 0 29 0 0 0 0 0 0 0 0 0 0 0 0 0 24 0 0 0 0 0 0 0 0 30 27 0 0 0 0 0 0 0 24 25 0 0 0 0 0 0 0 0 0 0 0 0 0 0 0 0 0 0 39 0 0 0 
		41 0 0 0 0 0 0 0 0 0 0 0 0 0 0 0 0 0 0 0 31 0 0 0 0 0 0 0 38 0 0 0 0 0 0 0 0 0 0 0 0 0 0 0 0 0 0 0 0 0 0 0 0 0 0 0 0 24 0 0 0 0 0 0 0 0 0 0 0 0 0 0 0 0 0 0 0 0 0 0 26 0 0 0 0 0 0 
		42 0 0 34 0 0 30 0 0 21 0 0 0 0 0 0 0 0 0 38 0 0 0 33 0 37 25 0 0 0 0 0 0 0 0 0 0 0 0 0 0 0 0 0 0 0 0 0 0 0 0 0 34 0 0 0 0 0 0 0 0 0 0 0 0 0 0 0 0 0 0 20 0 0 0 0 0 0 0 0 0 0 35 0 0 0 0 
		43 0 0 0 0 0 0 34 0 0 0 0 0 0 0 0 0 0 0 0 0 0 0 0 0 0 38 0 0 0 0 0 0 0 0 20 0 0 27 0 0 0 0 0 0 0 0 0 0 0 0 0 0 0 0 0 0 0 0 33 0 0 38 0 21 0 0 0 24 0 0 0 0 0 0 0 0 0 36 0 0 0 0 0 40 0 0 
		44 0 0 0 0 0 30 0 0 0 0 0 0 0 0 0 40 0 0 0 0 0 0 0 0 0 0 0 39 0 0 0 25 0 0 0 0 0 0 0 25 24 0 0 0 0 0 0 0 0 0 0 0 0 0 23 0 0 0 0 34 0 0 0 0 0 0 0 0 0 0 0 0 0 29 0 0 0 0 0 0 24 0 0 0 0 0 
		45 0 0 0 0 0 0 0 0 0 0 0 0 0 0 0 0 0 0 0 0 0 0 0 0 0 32 0 0 0 0 0 0 0 0 0 0 0 34 0 0 0 0 0 0 0 0 37 0 0 0 0 0 0 26 0 0 0 0 0 0 31 25 34 0 0 0 0 0 0 0 0 0 0 0 0 0 0 0 0 0 0 0 0 0 0 0 
		46 0 0 0 0 0 0 24 0 0 0 0 0 0 0 0 0 0 0 0 0 0 0 0 0 0 0 0 0 0 0 0 0 0 0 0 0 0 0 0 0 0 0 0 0 0 37 0 0 0 0 0 0 0 37 0 0 0 0 0 0 32 0 0 0 0 0 0 0 0 0 0 0 0 0 0 0 0 0 0 0 0 20 0 0 0 0 
		47 0 0 0 0 0 0 0 0 0 24 0 0 38 0 0 0 37 0 0 0 0 0 0 0 0 0 0 0 0 0 0 0 0 0 0 0 0 0 0 0 0 0 0 0 0 0 0 0 0 0 0 0 0 0 34 0 0 0 0 28 0 0 0 0 0 0 0 0 0 0 28 0 0 0 0 0 0 23 0 0 0 0 0 0 0 0 
		48 0 0 0 0 0 0 0 0 0 37 23 0 0 0 0 0 0 20 0 0 0 0 0 0 0 0 0 0 0 0 36 32 23 0 0 0 0 0 0 0 0 0 0 0 0 0 0 0 0 0 0 0 0 0 0 39 0 22 0 0 0 0 0 0 0 38 0 0 0 0 0 0 37 0 0 0 0 0 0 0 0 0 0 0 0 0 
		49 0 0 0 0 0 0 0 0 0 0 0 0 0 0 0 0 0 0 0 20 27 0 0 0 0 0 0 0 0 0 0 31 0 0 0 37 0 0 0 0 0 0 0 0 0 0 0 0 0 0 0 0 0 0 0 0 0 0 0 0 0 0 0 0 0 0 0 0 0 0 0 0 0 24 0 0 0 0 0 0 0 0 0 0 0 40 
		50 0 0 0 0 0 0 0 0 0 0 26 0 0 0 0 0 0 0 0 0 0 0 0 0 0 21 0 0 0 0 0 0 0 0 0 0 0 0 0 0 0 0 0 0 0 0 0 0 0 0 0 0 0 0 0 0 0 0 0 0 0 0 0 0 0 26 0 0 0 0 0 0 34 0 0 0 0 0 0 0 37 0 33 0 0 0 
		51 40 0 0 0 0 0 0 0 36 0 0 0 39 0 0 0 0 0 0 0 0 0 0 0 0 0 0 0 0 0 0 0 0 0 0 0 0 0 0 0 0 0 34 0 0 0 0 0 0 0 0 0 0 0 0 0 0 0 0 0 0 0 0 0 0 0 0 0 0 0 0 0 0 0 0 0 0 0 0 0 0 0 0 36 0 0 
		52 34 0 0 0 37 0 0 0 39 0 0 22 0 0 0 0 27 0 0 23 0 0 0 0 0 0 0 0 0 0 0 0 0 0 22 0 0 0 0 0 0 0 0 0 0 0 0 0 0 0 0 0 0 37 0 0 0 21 0 0 0 0 0 0 0 30 38 0 0 0 0 0 0 0 0 0 0 0 0 0 0 0 0 36 0 0 
		53 0 0 0 0 33 0 30 0 0 0 0 0 0 0 31 0 0 0 0 0 0 40 0 0 22 0 0 0 0 0 0 29 0 0 0 24 0 38 0 0 30 0 0 0 0 26 37 0 0 0 0 0 37 0 0 0 0 0 0 0 28 0 0 32 0 0 0 36 0 28 0 0 0 0 0 0 0 0 0 0 0 0 0 0 0 35 
		54 0 0 0 0 0 0 0 0 0 0 0 0 0 0 0 0 0 0 0 0 0 0 0 0 0 31 0 0 0 34 0 24 0 0 0 0 0 36 0 0 27 0 0 0 23 0 0 34 0 0 0 0 0 0 0 0 0 0 0 0 0 0 32 0 0 0 0 33 0 39 0 0 0 0 0 0 0 0 0 0 0 0 0 0 0 0 
		55 0 0 0 0 0 0 0 0 0 0 0 0 0 0 0 0 0 0 0 0 0 0 0 0 0 0 0 0 0 0 0 25 0 0 0 0 0 0 0 0 0 0 0 0 0 0 0 0 39 0 0 0 0 0 0 0 0 0 0 0 0 0 0 0 0 0 0 0 0 0 0 0 0 0 0 0 0 0 0 0 28 0 0 0 0 0 
		56 0 0 0 0 0 0 0 0 26 0 0 0 0 0 0 0 0 0 0 0 35 0 0 0 0 0 35 37 0 0 0 0 0 0 0 0 0 0 0 0 0 24 0 0 0 0 0 0 0 0 0 0 0 0 0 0 0 0 0 0 0 0 0 0 33 0 0 0 0 0 0 0 0 20 0 0 0 0 0 0 0 0 0 0 0 0 
		57 0 0 0 0 0 0 20 0 0 0 33 38 33 0 0 0 0 29 0 0 0 0 0 0 0 0 0 0 0 0 0 31 0 0 0 0 0 0 0 0 0 0 0 0 0 0 0 0 22 0 0 0 21 0 0 0 0 0 0 0 0 0 0 0 0 0 0 0 0 0 0 0 21 0 0 0 0 0 0 0 0 0 0 0 0 0 
		58 0 0 0 0 0 27 0 0 0 0 0 0 35 37 0 0 0 0 0 0 0 34 0 26 0 0 0 0 0 0 0 0 0 0 26 28 0 0 0 0 0 0 0 33 0 0 0 0 0 0 0 0 0 0 0 0 0 0 0 0 0 0 0 40 0 0 0 0 0 0 0 0 0 0 0 0 34 0 35 0 0 0 0 30 0 0 
		59 0 0 0 0 0 0 0 25 0 0 0 0 0 26 0 0 0 0 0 0 0 0 0 0 0 0 0 0 0 0 0 0 0 0 0 0 0 0 0 0 0 0 0 0 34 0 0 28 0 0 0 0 0 0 0 0 0 0 0 0 0 0 31 0 0 23 0 0 0 0 0 0 0 0 0 0 0 0 0 0 0 0 0 0 0 0 
		60 28 0 0 0 0 0 0 0 0 0 0 0 0 36 0 0 0 0 0 0 0 0 0 0 0 0 0 0 0 0 0 0 0 0 0 0 21 0 0 0 0 0 0 0 0 31 32 0 0 0 0 0 0 28 0 0 0 0 0 0 0 30 0 35 0 0 0 0 0 31 0 0 0 0 0 0 0 0 0 0 0 25 0 21 0 0 
		61 0 0 0 0 0 33 0 0 27 0 0 0 0 0 0 0 0 0 37 0 0 36 0 0 0 37 0 0 0 0 0 0 0 0 0 25 0 0 0 0 0 0 0 38 0 25 0 0 0 0 0 0 0 0 0 0 0 0 0 0 30 0 0 0 23 0 0 24 0 0 0 0 0 0 0 0 0 0 0 0 0 30 0 0 0 0 
		62 0 0 0 0 0 0 0 0 0 0 0 0 0 0 0 0 26 0 0 33 0 0 0 0 0 0 0 0 0 0 0 0 0 0 0 20 0 0 0 0 24 0 0 0 0 34 0 0 0 0 0 0 0 0 32 0 0 0 0 31 0 0 0 0 25 0 24 0 0 0 0 0 0 0 0 0 0 0 0 40 0 0 0 0 0 0 
		63 0 0 0 0 0 0 0 0 0 30 0 27 0 0 0 0 0 0 0 0 0 39 0 0 0 0 0 0 0 0 0 0 0 0 0 0 0 0 0 28 25 0 0 21 0 0 0 0 0 0 0 0 0 32 0 0 0 0 40 0 35 0 0 0 0 0 0 0 0 0 0 0 0 0 0 0 37 23 0 0 0 0 0 0 0 0 
		64 0 0 0 36 21 0 29 0 0 0 0 0 22 0 0 34 0 36 0 33 0 0 0 0 0 0 0 0 0 0 0 0 0 0 0 0 0 0 0 29 0 0 0 0 0 0 0 0 0 0 0 0 0 0 0 0 33 0 0 0 0 23 25 0 0 21 0 36 0 25 0 0 0 20 0 0 0 0 27 0 24 30 0 21 0 0 
		65 0 0 0 0 0 0 0 28 0 0 32 0 0 0 0 0 0 0 0 0 0 0 28 0 0 0 0 0 0 0 26 0 0 0 0 0 0 0 31 0 0 0 0 0 0 0 0 0 38 0 26 0 30 0 0 0 0 0 0 23 0 0 0 0 21 0 0 0 0 0 31 0 0 0 0 27 0 0 0 0 31 0 39 0 39 0 
		66 26 0 0 0 0 0 0 0 40 0 0 0 0 0 0 26 0 0 0 0 0 0 0 0 0 0 0 0 0 0 0 0 0 0 0 0 0 31 0 32 0 0 0 0 0 0 0 0 0 0 0 0 38 0 0 0 0 0 0 0 0 0 24 0 0 0 0 0 0 0 38 0 0 0 0 0 0 20 27 0 0 0 0 39 0 0 
		67 0 0 31 0 0 0 0 0 0 0 0 0 0 0 0 0 0 0 0 0 33 0 0 0 0 0 0 0 0 23 0 0 0 0 0 0 0 0 0 0 0 0 0 24 0 0 0 0 0 0 0 0 0 36 33 0 0 0 0 0 0 24 0 0 36 0 0 0 0 0 0 0 0 37 0 0 0 0 0 0 0 35 0 0 0 0 
		68 0 0 0 0 0 0 0 0 0 0 0 0 0 0 0 0 30 0 0 0 0 0 0 36 0 0 0 0 0 0 33 0 0 0 0 0 0 0 0 33 0 0 0 0 0 0 0 0 0 0 0 0 0 0 0 0 0 0 0 0 0 0 0 0 0 0 0 0 0 0 0 0 36 0 0 0 0 0 0 0 0 0 0 0 0 0 
		69 0 0 0 0 0 0 40 0 0 0 0 0 0 0 0 0 0 0 0 0 0 0 32 38 0 0 0 0 0 0 0 0 0 0 0 0 0 0 0 0 0 0 0 0 0 0 0 0 0 0 0 0 0 28 39 0 0 0 0 0 31 0 0 0 25 0 0 0 0 0 0 0 0 0 0 0 0 0 0 0 0 0 0 0 0 0 
		70 0 20 0 0 0 0 0 0 0 0 0 0 0 0 0 0 0 0 0 0 0 0 0 0 0 0 0 0 0 0 26 0 0 0 0 0 0 0 0 36 0 0 20 0 0 0 0 28 0 0 0 0 0 0 0 0 0 0 0 0 0 0 0 0 0 31 38 0 0 0 0 0 0 0 0 0 0 0 0 0 0 0 0 0 0 0 
		71 0 0 0 0 0 0 0 0 24 0 0 38 0 0 0 0 0 0 0 0 0 20 0 0 0 0 0 0 0 0 0 0 0 0 0 0 0 0 0 0 0 0 0 0 0 0 0 0 0 0 0 0 0 0 0 0 0 0 0 0 0 0 0 0 0 0 0 0 0 0 0 0 0 0 0 0 0 0 0 0 0 0 0 0 0 0 
		72 0 27 0 0 0 0 0 0 0 0 0 0 0 0 0 0 30 0 0 0 0 0 0 0 0 0 0 0 0 22 0 35 0 0 0 0 0 0 0 0 0 0 0 0 0 0 0 0 37 0 34 0 0 0 0 0 0 21 0 0 0 0 0 0 0 0 0 0 36 0 0 0 0 0 0 0 0 0 0 0 36 0 0 0 0 0 
		73 0 29 0 0 0 0 0 40 0 0 0 0 0 0 0 0 0 0 0 0 0 0 0 0 0 0 0 0 34 0 0 0 0 0 0 0 0 0 0 0 0 0 0 0 29 0 0 0 0 24 0 0 0 0 0 0 20 0 0 0 0 0 0 0 20 0 0 37 0 0 0 0 0 0 0 0 0 0 0 0 0 0 0 0 0 0 
		74 0 0 0 0 39 26 0 0 0 0 0 0 0 0 0 0 0 0 0 0 0 0 0 0 24 0 40 0 0 0 0 0 0 0 0 0 0 0 0 0 0 0 0 0 0 0 0 0 0 0 0 0 0 0 0 0 0 0 0 0 0 0 0 0 0 0 0 0 0 0 0 0 0 0 0 0 0 0 0 0 0 0 0 0 0 0 
		75 0 29 27 0 0 0 0 31 0 20 0 0 0 33 0 0 0 30 22 0 0 0 36 0 0 0 0 38 0 0 0 0 0 0 0 0 20 0 0 0 0 0 0 0 0 0 0 0 0 0 0 0 0 0 0 0 0 0 0 0 0 0 0 0 0 27 0 0 0 0 0 0 0 0 0 0 0 33 0 0 0 0 0 20 0 0 
		76 0 0 0 0 0 0 40 0 0 0 0 0 0 0 0 0 0 0 0 0 0 0 0 0 0 0 0 0 0 0 0 0 0 0 0 36 0 0 0 0 0 0 0 0 0 0 0 0 0 0 0 0 0 0 0 0 0 0 34 0 0 0 0 37 0 0 0 0 0 0 0 0 0 0 0 0 0 0 0 0 0 0 0 0 0 0 
		77 0 0 0 0 0 0 25 0 0 0 0 0 0 40 0 0 0 0 0 0 0 0 0 0 0 0 0 0 0 0 0 0 0 0 0 0 0 0 0 0 0 0 0 36 0 0 0 23 0 0 0 0 0 0 0 0 0 0 0 0 0 0 0 23 0 0 20 0 0 0 0 0 0 0 0 33 0 0 23 0 0 0 30 0 0 0 
		78 0 0 30 25 0 31 0 0 0 36 0 0 0 36 0 0 0 0 0 0 0 0 30 0 0 0 29 0 0 0 0 0 0 0 0 0 29 0 0 0 0 0 0 0 0 0 0 0 0 0 0 0 0 0 0 0 0 0 35 0 0 0 0 0 27 0 27 0 0 0 0 0 0 0 0 0 0 23 0 0 0 0 0 0 25 30 
		79 0 35 0 20 0 0 0 0 0 0 0 0 0 0 31 0 0 0 0 0 0 0 0 0 0 0 0 0 0 0 0 0 0 0 0 0 0 0 0 0 0 26 0 0 0 0 0 0 0 0 0 0 0 0 0 0 0 0 0 0 0 0 40 0 0 0 0 0 0 0 0 0 0 0 0 0 0 0 0 0 0 0 0 0 0 20 
		80 0 0 0 0 0 25 0 0 0 0 0 30 0 0 0 0 0 36 0 0 0 0 34 0 0 37 0 0 0 0 0 0 0 27 0 0 0 0 36 0 0 0 0 0 24 0 0 0 0 0 37 0 0 0 0 28 0 0 0 0 0 0 0 0 24 31 0 0 0 0 0 0 36 0 0 0 0 0 0 0 0 0 0 0 0 0 
		81 0 0 38 40 0 0 0 0 0 20 0 37 0 0 0 0 0 0 0 0 0 0 0 0 0 0 0 0 37 0 0 0 0 0 0 25 0 0 0 39 0 0 35 0 0 0 20 0 0 0 0 0 0 0 0 0 0 0 0 0 25 30 0 0 30 0 0 35 0 0 0 0 0 0 0 0 0 0 0 0 0 0 0 0 0 0 
		82 0 0 0 0 0 0 0 0 0 0 0 0 0 0 0 0 0 0 0 0 0 0 20 0 0 0 0 0 0 0 31 37 0 0 0 0 0 0 37 35 39 0 0 0 0 0 0 0 0 0 33 0 0 0 0 0 0 0 0 0 0 0 0 0 0 39 0 0 0 0 0 0 0 0 0 0 0 30 0 0 0 0 0 0 0 0 
		83 0 0 40 0 27 0 38 0 31 35 0 31 0 0 0 0 0 0 39 0 0 27 0 0 24 0 0 0 0 0 0 0 0 0 0 0 33 33 0 0 0 0 0 40 0 0 0 0 0 0 0 36 36 0 0 0 0 0 30 0 21 0 0 0 21 0 39 0 0 0 0 0 0 0 0 20 0 0 0 0 0 0 0 0 0 0 
		84 0 0 0 0 0 0 0 0 0 0 33 0 0 0 0 0 0 0 0 0 0 0 0 0 0 0 0 0 0 0 0 0 0 0 0 0 0 0 0 0 0 0 0 0 0 0 0 0 0 0 0 0 0 0 0 0 0 0 0 0 0 0 0 0 0 39 0 0 0 0 0 0 0 0 0 0 0 0 25 0 0 0 0 0 0 0 
		85 0 0 0 0 0 0 0 0 0 0 0 0 0 0 38 26 0 0 0 0 0 0 21 0 0 0 34 24 0 40 38 0 0 0 0 0 0 0 0 0 0 0 0 0 0 0 0 0 0 40 0 0 0 35 0 0 0 0 0 0 0 0 0 0 0 0 0 0 0 0 0 0 0 0 0 0 0 0 30 20 0 0 0 0 0 0 
;
